L = 37;
N = 27;
W = [ 3, 3, 3, 3, 3, 3, 3, 3, 3, 3, 3, 3, 3, 3, 4, 4, 4, 4, 4, 4, 4, 5, 5, 5, 5, 5, 12 ];
H = [ 3, 4, 5, 6, 7, 8, 9, 11, 12, 13, 14, 17, 18, 21, 3, 4, 5, 6, 10, 22, 24, 3, 4, 6, 10, 14, 37 ];
H_LB = 37;
H_UB = 56;